p tw 432 2080
1 33
2 34
3 35
4 36
5 37
6 38
7 39
8 40
9 41
10 42
11 43
12 44
13 45
14 46
15 47
16 48
17 49
18 50
19 51
20 52
21 53
22 54
23 55
24 56
25 57
26 58
27 59
28 60
29 61
30 62
31 63
32 64
33 86
33 114
33 158
33 165
33 167
33 168
34 95
34 132
34 136
34 137
34 138
34 139
35 133
35 141
35 160
35 162
35 163
35 164
36 93
36 94
36 95
36 96
36 97
36 98
37 80
37 113
37 137
37 144
37 148
37 149
38 68
38 88
38 150
38 152
38 153
38 154
39 71
39 72
39 73
39 74
39 75
39 76
40 69
40 90
40 120
40 134
40 172
40 173
41 66
41 118
41 132
41 133
41 134
41 135
42 107
42 136
42 140
42 141
42 142
42 143
43 100
43 104
43 122
43 126
43 130
43 131
44 85
44 127
44 152
44 157
44 160
44 161
45 81
45 102
45 119
45 146
45 169
45 171
46 65
46 107
46 108
46 109
46 110
46 111
47 75
47 128
47 148
47 162
47 165
47 166
48 73
48 78
48 122
48 123
48 124
48 125
49 77
49 93
49 99
49 104
49 105
49 106
50 72
50 99
50 100
50 101
50 102
50 103
51 89
51 101
51 155
51 157
51 158
51 159
52 77
52 78
52 79
52 80
52 81
52 82
53 94
53 112
53 118
53 119
53 120
53 121
54 67
54 96
54 105
54 109
54 150
54 151
55 65
55 66
55 67
55 68
55 69
55 70
56 79
56 108
56 144
56 145
56 146
56 147
57 112
57 113
57 114
57 115
57 116
57 117
58 115
58 124
58 142
58 163
58 169
58 170
59 91
59 130
59 167
59 172
59 174
59 176
60 83
60 88
60 89
60 90
60 91
60 92
61 97
61 123
61 140
61 145
61 155
61 156
62 74
62 84
62 126
62 127
62 128
62 129
63 110
63 116
63 138
63 153
63 174
63 175
64 71
64 83
64 84
64 85
64 86
64 87
65 66
65 67
65 68
65 69
65 70
65 107
65 108
65 109
65 110
65 111
66 67
66 68
66 69
66 70
66 118
66 132
66 133
66 134
66 135
67 68
67 69
67 70
67 96
67 105
67 109
67 150
67 151
68 69
68 70
68 88
68 150
68 152
68 153
68 154
69 70
69 90
69 120
69 134
69 172
69 173
70 177
70 178
70 179
70 180
70 181
70 182
71 72
71 73
71 74
71 75
71 76
71 83
71 84
71 85
71 86
71 87
72 73
72 74
72 75
72 76
72 99
72 100
72 101
72 102
72 103
73 74
73 75
73 76
73 78
73 122
73 123
73 124
73 125
74 75
74 76
74 84
74 126
74 127
74 128
74 129
75 76
75 128
75 148
75 162
75 165
75 166
76 183
76 184
76 185
76 186
76 187
76 188
77 78
77 79
77 80
77 81
77 82
77 93
77 99
77 104
77 105
77 106
78 79
78 80
78 81
78 82
78 122
78 123
78 124
78 125
79 80
79 81
79 82
79 108
79 144
79 145
79 146
79 147
80 81
80 82
80 113
80 137
80 144
80 148
80 149
81 82
81 102
81 119
81 146
81 169
81 171
82 189
82 190
82 191
82 192
82 193
82 194
83 84
83 85
83 86
83 87
83 88
83 89
83 90
83 91
83 92
84 85
84 86
84 87
84 126
84 127
84 128
84 129
85 86
85 87
85 127
85 152
85 157
85 160
85 161
86 87
86 114
86 158
86 165
86 167
86 168
87 183
87 195
87 196
87 197
87 198
87 199
88 89
88 90
88 91
88 92
88 150
88 152
88 153
88 154
89 90
89 91
89 92
89 101
89 155
89 157
89 158
89 159
90 91
90 92
90 120
90 134
90 172
90 173
91 92
91 130
91 167
91 172
91 174
91 176
92 195
92 200
92 201
92 202
92 203
92 204
93 94
93 95
93 96
93 97
93 98
93 99
93 104
93 105
93 106
94 95
94 96
94 97
94 98
94 112
94 118
94 119
94 120
94 121
95 96
95 97
95 98
95 132
95 136
95 137
95 138
95 139
96 97
96 98
96 105
96 109
96 150
96 151
97 98
97 123
97 140
97 145
97 155
97 156
98 205
98 206
98 207
98 208
98 209
98 210
99 100
99 101
99 102
99 103
99 104
99 105
99 106
100 101
100 102
100 103
100 104
100 122
100 126
100 130
100 131
101 102
101 103
101 155
101 157
101 158
101 159
102 103
102 119
102 146
102 169
102 171
103 184
103 211
103 212
103 213
103 214
103 215
104 105
104 106
104 122
104 126
104 130
104 131
105 106
105 109
105 150
105 151
106 189
106 205
106 211
106 216
106 217
106 218
107 108
107 109
107 110
107 111
107 136
107 140
107 141
107 142
107 143
108 109
108 110
108 111
108 144
108 145
108 146
108 147
109 110
109 111
109 150
109 151
110 111
110 116
110 138
110 153
110 174
110 175
111 177
111 219
111 220
111 221
111 222
111 223
112 113
112 114
112 115
112 116
112 117
112 118
112 119
112 120
112 121
113 114
113 115
113 116
113 117
113 137
113 144
113 148
113 149
114 115
114 116
114 117
114 158
114 165
114 167
114 168
115 116
115 117
115 124
115 142
115 163
115 169
115 170
116 117
116 138
116 153
116 174
116 175
117 224
117 225
117 226
117 227
117 228
117 229
118 119
118 120
118 121
118 132
118 133
118 134
118 135
119 120
119 121
119 146
119 169
119 171
120 121
120 134
120 172
120 173
121 206
121 224
121 230
121 231
121 232
121 233
122 123
122 124
122 125
122 126
122 130
122 131
123 124
123 125
123 140
123 145
123 155
123 156
124 125
124 142
124 163
124 169
124 170
125 185
125 190
125 234
125 235
125 236
125 237
126 127
126 128
126 129
126 130
126 131
127 128
127 129
127 152
127 157
127 160
127 161
128 129
128 148
128 162
128 165
128 166
129 186
129 196
129 238
129 239
129 240
129 241
130 131
130 167
130 172
130 174
130 176
131 212
131 216
131 234
131 238
131 242
131 243
132 133
132 134
132 135
132 136
132 137
132 138
132 139
133 134
133 135
133 141
133 160
133 162
133 163
133 164
134 135
134 172
134 173
135 178
135 230
135 244
135 245
135 246
135 247
136 137
136 138
136 139
136 140
136 141
136 142
136 143
137 138
137 139
137 144
137 148
137 149
138 139
138 153
138 174
138 175
139 207
139 244
139 248
139 249
139 250
139 251
140 141
140 142
140 143
140 145
140 155
140 156
141 142
141 143
141 160
141 162
141 163
141 164
142 143
142 163
142 169
142 170
143 219
143 248
143 252
143 253
143 254
143 255
144 145
144 146
144 147
144 148
144 149
145 146
145 147
145 155
145 156
146 147
146 169
146 171
147 191
147 220
147 256
147 257
147 258
147 259
148 149
148 162
148 165
148 166
149 192
149 225
149 249
149 256
149 260
149 261
150 151
150 152
150 153
150 154
151 179
151 208
151 217
151 221
151 262
151 263
152 153
152 154
152 157
152 160
152 161
153 154
153 174
153 175
154 180
154 200
154 262
154 264
154 265
154 266
155 156
155 157
155 158
155 159
156 209
156 235
156 252
156 257
156 267
156 268
157 158
157 159
157 160
157 161
158 159
158 165
158 167
158 168
159 201
159 213
159 267
159 269
159 270
159 271
160 161
160 162
160 163
160 164
161 197
161 239
161 264
161 269
161 272
161 273
162 163
162 164
162 165
162 166
163 164
163 169
163 170
164 245
164 253
164 272
164 274
164 275
164 276
165 166
165 167
165 168
166 187
166 240
166 260
166 274
166 277
166 278
167 168
167 172
167 174
167 176
168 198
168 226
168 270
168 277
168 279
168 280
169 170
169 171
170 227
170 236
170 254
170 275
170 281
170 282
171 193
171 214
171 231
171 258
171 281
171 283
172 173
172 174
172 176
173 181
173 202
173 232
173 246
173 284
173 285
174 175
174 176
175 222
175 228
175 250
175 265
175 286
175 287
176 203
176 242
176 279
176 284
176 286
176 288
177 178
177 179
177 180
177 181
177 182
177 219
177 220
177 221
177 222
177 223
178 179
178 180
178 181
178 182
178 230
178 244
178 245
178 246
178 247
179 180
179 181
179 182
179 208
179 217
179 221
179 262
179 263
180 181
180 182
180 200
180 262
180 264
180 265
180 266
181 182
181 202
181 232
181 246
181 284
181 285
182 289
182 290
182 291
182 292
182 293
182 294
183 184
183 185
183 186
183 187
183 188
183 195
183 196
183 197
183 198
183 199
184 185
184 186
184 187
184 188
184 211
184 212
184 213
184 214
184 215
185 186
185 187
185 188
185 190
185 234
185 235
185 236
185 237
186 187
186 188
186 196
186 238
186 239
186 240
186 241
187 188
187 240
187 260
187 274
187 277
187 278
188 295
188 296
188 297
188 298
188 299
188 300
189 190
189 191
189 192
189 193
189 194
189 205
189 211
189 216
189 217
189 218
190 191
190 192
190 193
190 194
190 234
190 235
190 236
190 237
191 192
191 193
191 194
191 220
191 256
191 257
191 258
191 259
192 193
192 194
192 225
192 249
192 256
192 260
192 261
193 194
193 214
193 231
193 258
193 281
193 283
194 301
194 302
194 303
194 304
194 305
194 306
195 196
195 197
195 198
195 199
195 200
195 201
195 202
195 203
195 204
196 197
196 198
196 199
196 238
196 239
196 240
196 241
197 198
197 199
197 239
197 264
197 269
197 272
197 273
198 199
198 226
198 270
198 277
198 279
198 280
199 295
199 307
199 308
199 309
199 310
199 311
200 201
200 202
200 203
200 204
200 262
200 264
200 265
200 266
201 202
201 203
201 204
201 213
201 267
201 269
201 270
201 271
202 203
202 204
202 232
202 246
202 284
202 285
203 204
203 242
203 279
203 284
203 286
203 288
204 307
204 312
204 313
204 314
204 315
204 316
205 206
205 207
205 208
205 209
205 210
205 211
205 216
205 217
205 218
206 207
206 208
206 209
206 210
206 224
206 230
206 231
206 232
206 233
207 208
207 209
207 210
207 244
207 248
207 249
207 250
207 251
208 209
208 210
208 217
208 221
208 262
208 263
209 210
209 235
209 252
209 257
209 267
209 268
210 317
210 318
210 319
210 320
210 321
210 322
211 212
211 213
211 214
211 215
211 216
211 217
211 218
212 213
212 214
212 215
212 216
212 234
212 238
212 242
212 243
213 214
213 215
213 267
213 269
213 270
213 271
214 215
214 231
214 258
214 281
214 283
215 296
215 323
215 324
215 325
215 326
215 327
216 217
216 218
216 234
216 238
216 242
216 243
217 218
217 221
217 262
217 263
218 301
218 317
218 323
218 328
218 329
218 330
219 220
219 221
219 222
219 223
219 248
219 252
219 253
219 254
219 255
220 221
220 222
220 223
220 256
220 257
220 258
220 259
221 222
221 223
221 262
221 263
222 223
222 228
222 250
222 265
222 286
222 287
223 289
223 331
223 332
223 333
223 334
223 335
224 225
224 226
224 227
224 228
224 229
224 230
224 231
224 232
224 233
225 226
225 227
225 228
225 229
225 249
225 256
225 260
225 261
226 227
226 228
226 229
226 270
226 277
226 279
226 280
227 228
227 229
227 236
227 254
227 275
227 281
227 282
228 229
228 250
228 265
228 286
228 287
229 336
229 337
229 338
229 339
229 340
229 341
230 231
230 232
230 233
230 244
230 245
230 246
230 247
231 232
231 233
231 258
231 281
231 283
232 233
232 246
232 284
232 285
233 318
233 336
233 342
233 343
233 344
233 345
234 235
234 236
234 237
234 238
234 242
234 243
235 236
235 237
235 252
235 257
235 267
235 268
236 237
236 254
236 275
236 281
236 282
237 297
237 302
237 346
237 347
237 348
237 349
238 239
238 240
238 241
238 242
238 243
239 240
239 241
239 264
239 269
239 272
239 273
240 241
240 260
240 274
240 277
240 278
241 298
241 308
241 350
241 351
241 352
241 353
242 243
242 279
242 284
242 286
242 288
243 324
243 328
243 346
243 350
243 354
243 355
244 245
244 246
244 247
244 248
244 249
244 250
244 251
245 246
245 247
245 253
245 272
245 274
245 275
245 276
246 247
246 284
246 285
247 290
247 342
247 356
247 357
247 358
247 359
248 249
248 250
248 251
248 252
248 253
248 254
248 255
249 250
249 251
249 256
249 260
249 261
250 251
250 265
250 286
250 287
251 319
251 356
251 360
251 361
251 362
251 363
252 253
252 254
252 255
252 257
252 267
252 268
253 254
253 255
253 272
253 274
253 275
253 276
254 255
254 275
254 281
254 282
255 331
255 360
255 364
255 365
255 366
255 367
256 257
256 258
256 259
256 260
256 261
257 258
257 259
257 267
257 268
258 259
258 281
258 283
259 303
259 332
259 368
259 369
259 370
259 371
260 261
260 274
260 277
260 278
261 304
261 337
261 361
261 368
261 372
261 373
262 263
262 264
262 265
262 266
263 291
263 320
263 329
263 333
263 374
263 375
264 265
264 266
264 269
264 272
264 273
265 266
265 286
265 287
266 292
266 312
266 374
266 376
266 377
266 378
267 268
267 269
267 270
267 271
268 321
268 347
268 364
268 369
268 379
268 380
269 270
269 271
269 272
269 273
270 271
270 277
270 279
270 280
271 313
271 325
271 379
271 381
271 382
271 383
272 273
272 274
272 275
272 276
273 309
273 351
273 376
273 381
273 384
273 385
274 275
274 276
274 277
274 278
275 276
275 281
275 282
276 357
276 365
276 384
276 386
276 387
276 388
277 278
277 279
277 280
278 299
278 352
278 372
278 386
278 389
278 390
279 280
279 284
279 286
279 288
280 310
280 338
280 382
280 389
280 391
280 392
281 282
281 283
282 339
282 348
282 366
282 387
282 393
282 394
283 305
283 326
283 343
283 370
283 393
283 395
284 285
284 286
284 288
285 293
285 314
285 344
285 358
285 396
285 397
286 287
286 288
287 334
287 340
287 362
287 377
287 398
287 399
288 315
288 354
288 391
288 396
288 398
288 400
289 290
289 291
289 292
289 293
289 294
289 331
289 332
289 333
289 334
289 335
290 291
290 292
290 293
290 294
290 342
290 356
290 357
290 358
290 359
291 292
291 293
291 294
291 320
291 329
291 333
291 374
291 375
292 293
292 294
292 312
292 374
292 376
292 377
292 378
293 294
293 314
293 344
293 358
293 396
293 397
294 410
295 296
295 297
295 298
295 299
295 300
295 307
295 308
295 309
295 310
295 311
296 297
296 298
296 299
296 300
296 323
296 324
296 325
296 326
296 327
297 298
297 299
297 300
297 302
297 346
297 347
297 348
297 349
298 299
298 300
298 308
298 350
298 351
298 352
298 353
299 300
299 352
299 372
299 386
299 389
299 390
300 426
301 302
301 303
301 304
301 305
301 306
301 317
301 323
301 328
301 329
301 330
302 303
302 304
302 305
302 306
302 346
302 347
302 348
302 349
303 304
303 305
303 306
303 332
303 368
303 369
303 370
303 371
304 305
304 306
304 337
304 361
304 368
304 372
304 373
305 306
305 326
305 343
305 370
305 393
305 395
306 413
307 308
307 309
307 310
307 311
307 312
307 313
307 314
307 315
307 316
308 309
308 310
308 311
308 350
308 351
308 352
308 353
309 310
309 311
309 351
309 376
309 381
309 384
309 385
310 311
310 338
310 382
310 389
310 391
310 392
311 401
312 313
312 314
312 315
312 316
312 374
312 376
312 377
312 378
313 314
313 315
313 316
313 325
313 379
313 381
313 382
313 383
314 315
314 316
314 344
314 358
314 396
314 397
315 316
315 354
315 391
315 396
315 398
315 400
316 405
317 318
317 319
317 320
317 321
317 322
317 323
317 328
317 329
317 330
318 319
318 320
318 321
318 322
318 336
318 342
318 343
318 344
318 345
319 320
319 321
319 322
319 356
319 360
319 361
319 362
319 363
320 321
320 322
320 329
320 333
320 374
320 375
321 322
321 347
321 364
321 369
321 379
321 380
322 429
323 324
323 325
323 326
323 327
323 328
323 329
323 330
324 325
324 326
324 327
324 328
324 346
324 350
324 354
324 355
325 326
325 327
325 379
325 381
325 382
325 383
326 327
326 343
326 370
326 393
326 395
327 415
328 329
328 330
328 346
328 350
328 354
328 355
329 330
329 333
329 374
329 375
330 416
331 332
331 333
331 334
331 335
331 360
331 364
331 365
331 366
331 367
332 333
332 334
332 335
332 368
332 369
332 370
332 371
333 334
333 335
333 374
333 375
334 335
334 340
334 362
334 377
334 398
334 399
335 419
336 337
336 338
336 339
336 340
336 341
336 342
336 343
336 344
336 345
337 338
337 339
337 340
337 341
337 361
337 368
337 372
337 373
338 339
338 340
338 341
338 382
338 389
338 391
338 392
339 340
339 341
339 348
339 366
339 387
339 393
339 394
340 341
340 362
340 377
340 398
340 399
341 408
342 343
342 344
342 345
342 356
342 357
342 358
342 359
343 344
343 345
343 370
343 393
343 395
344 345
344 358
344 396
344 397
345 412
346 347
346 348
346 349
346 350
346 354
346 355
347 348
347 349
347 364
347 369
347 379
347 380
348 349
348 366
348 387
348 393
348 394
349 417
350 351
350 352
350 353
350 354
350 355
351 352
351 353
351 376
351 381
351 384
351 385
352 353
352 372
352 386
352 389
352 390
353 403
354 355
354 391
354 396
354 398
354 400
355 422
356 357
356 358
356 359
356 360
356 361
356 362
356 363
357 358
357 359
357 365
357 384
357 386
357 387
357 388
358 359
358 396
358 397
359 424
360 361
360 362
360 363
360 364
360 365
360 366
360 367
361 362
361 363
361 368
361 372
361 373
362 363
362 377
362 398
362 399
363 431
364 365
364 366
364 367
364 369
364 379
364 380
365 366
365 367
365 384
365 386
365 387
365 388
366 367
366 387
366 393
366 394
367 423
368 369
368 370
368 371
368 372
368 373
369 370
369 371
369 379
369 380
370 371
370 393
370 395
371 409
372 373
372 386
372 389
372 390
373 428
374 375
374 376
374 377
374 378
375 411
376 377
376 378
376 381
376 384
376 385
377 378
377 398
377 399
378 427
379 380
379 381
379 382
379 383
380 404
381 382
381 383
381 384
381 385
382 383
382 389
382 391
382 392
383 414
384 385
384 386
384 387
384 388
385 421
386 387
386 388
386 389
386 390
387 388
387 393
387 394
388 430
389 390
389 391
389 392
390 418
391 392
391 396
391 398
391 400
392 432
393 394
393 395
394 407
395 420
396 397
396 398
396 400
397 425
398 399
398 400
399 402
400 406
